NAME: random41
TYPE: TSP
DIMENSION: 41
EDGE_WEIGHT_TYPE: EXPLICIT
EDGE_WEIGHT_FORMAT: FULL_MATRIX
EDGE_WEIGHT_SECTION
0 43 1110 1110 1110 1110 1110 23 1110 1110 1110 1110 1110 1110 1110 19 1110 1110 1110 1110 1110 1110 24 1110 1110 1110 1110 23 1110 1110 1110 1110 1110 1110 1110 1110 1110 20 1110 1110 21
43 0 1110 1110 1110 1110 1110 20 27 1110 1110 1110 1110 1110 1110 1110 1110 40 1110 21 1110 1110 1110 1110 1110 1110 1110 1110 1110 1110 1110 1110 1110 1110 1110 1110 1110 1110 1110 1110 1110
1110 1110 0 10 1110 1110 30 1110 1110 1110 1110 1110 20 1110 14 1110 1110 1110 1110 1110 1110 1110 1110 1110 32 1110 1110 1110 7 1110 1110 1110 37 1110 1110 1110 1110 1110 1110 1110 1110
1110 1110 10 0 1110 1110 1110 1110 1110 1110 1110 1110 23 1110 12 1110 13 1110 1110 1110 16 1110 1110 1110 1110 1110 1110 1110 3 1110 1110 1110 1110 1110 1110 1110 1110 1110 1110 1110 1110
1110 1110 1110 1110 0 1110 1110 1110 1110 17 1110 1110 1110 1110 1110 1110 1110 16 1110 24 1110 1110 1110 1110 1110 1110 1110 1110 1110 26 1110 1110 1110 1110 1110 1110 1110 1110 1110 32 1110
1110 1110 1110 1110 1110 0 1110 1110 1110 1110 1110 14 1110 1110 1110 1110 1110 1110 1110 1110 1110 1110 1110 1110 1110 1110 1110 5 1110 1110 1110 1110 1110 12 15 1110 1110 9 1110 1110 1110
1110 1110 30 1110 1110 1110 0 1110 1110 1110 1110 1110 13 1110 1110 1110 1110 1110 1110 1110 1110 1110 7 1110 6 1110 1110 1110 1110 1110 1110 1110 1110 10 1110 1110 1110 1110 1110 1110 1110
23 20 1110 1110 1110 1110 1110 0 33 1110 1110 1110 1110 1110 1110 1110 1110 1110 1110 1110 1110 1110 1110 1110 1110 1110 1110 1110 1110 1110 1110 1110 1110 1110 25 1110 1110 17 1110 1110 1110
1110 27 1110 1110 1110 1110 1110 33 0 9 1110 1110 1110 1110 1110 1110 1110 1110 1110 13 1110 1110 1110 1110 1110 1110 1110 1110 1110 1110 1110 1110 1110 1110 23 1110 1110 1110 1110 1110 1110
1110 1110 1110 1110 17 1110 1110 1110 9 0 1110 1110 1110 1110 1110 1110 1110 1110 1110 19 1110 1110 1110 1110 1110 1110 33 1110 1110 1110 1110 1110 1110 1110 28 35 1110 1110 1110 28 1110
1110 1110 1110 1110 1110 1110 1110 1110 1110 1110 0 1110 1110 1110 1110 1110 1110 1110 15 1110 1110 1110 1110 1110 1110 19 4 1110 1110 1110 1110 23 1110 1110 1110 1110 1110 1110 25 14 1110
1110 1110 1110 1110 1110 14 1110 1110 1110 1110 1110 0 1110 1110 1110 1110 1110 1110 1110 1110 1110 10 1110 1110 1110 1110 1110 1110 1110 1110 1110 1110 1110 16 9 17 1110 1110 1110 1110 1110
1110 1110 20 23 1110 1110 13 1110 1110 1110 1110 1110 0 20 1110 1110 22 1110 1110 1110 1110 12 1110 1110 1110 1110 1110 1110 1110 1110 1110 1110 1110 7 1110 1110 1110 1110 1110 1110 1110
1110 1110 1110 1110 1110 1110 1110 1110 1110 1110 1110 1110 20 0 1110 1110 8 1110 1110 1110 1110 12 1110 1110 1110 1110 1110 1110 1110 1110 1110 1110 1110 1110 1110 1110 2 1110 12 1110 1110
1110 1110 14 12 1110 1110 1110 1110 1110 1110 1110 1110 1110 1110 0 1110 1110 1110 1110 1110 25 1110 1110 1110 1110 45 1110 1110 10 1110 1110 1110 51 1110 1110 1110 1110 1110 1110 1110 1110
19 1110 1110 1110 1110 1110 1110 1110 1110 1110 1110 1110 1110 1110 1110 0 1110 1110 1110 1110 1110 1110 1110 1110 1110 1110 1110 1110 1110 1110 1110 1110 13 1110 1110 1110 1110 1110 1110 1110 6
1110 1110 1110 13 1110 1110 1110 1110 1110 1110 1110 1110 22 8 1110 1110 0 1110 1110 1110 8 1110 1110 1110 1110 1110 1110 1110 1110 1110 1110 1110 1110 1110 1110 1110 1110 1110 7 1110 1110
1110 40 1110 1110 16 1110 1110 1110 1110 1110 1110 1110 1110 1110 1110 1110 1110 0 1110 22 1110 1110 1110 1110 1110 1110 1110 1110 1110 40 1110 1110 1110 1110 1110 1110 1110 1110 1110 1110 1110
1110 1110 1110 1110 1110 1110 1110 1110 1110 1110 15 1110 1110 1110 1110 1110 1110 1110 0 1110 1110 1110 1110 24 1110 6 1110 1110 1110 1110 28 24 1110 1110 1110 1110 1110 1110 1110 1110 1110
1110 21 1110 1110 24 1110 1110 1110 13 19 1110 1110 1110 1110 1110 1110 1110 22 1110 0 1110 1110 1110 1110 1110 1110 1110 1110 1110 1110 1110 1110 1110 1110 1110 1110 1110 1110 1110 1110 1110
1110 1110 1110 16 1110 1110 1110 1110 1110 1110 1110 1110 1110 1110 25 1110 8 1110 1110 1110 0 1110 1110 1110 1110 25 1110 1110 1110 1110 1110 1110 1110 1110 1110 1110 1110 1110 3 1110 1110
1110 1110 1110 1110 1110 1110 1110 1110 1110 1110 1110 10 12 12 1110 1110 1110 1110 1110 1110 1110 0 1110 1110 1110 1110 1110 1110 1110 1110 1110 1110 1110 12 1110 13 12 1110 1110 1110 1110
24 1110 1110 1110 1110 1110 7 1110 1110 1110 1110 1110 1110 1110 1110 1110 1110 1110 1110 1110 1110 1110 0 1110 10 1110 1110 4 1110 1110 1110 1110 1110 10 1110 1110 1110 1110 1110 1110 17
1110 1110 1110 1110 1110 1110 1110 1110 1110 1110 1110 1110 1110 1110 1110 1110 1110 1110 24 1110 1110 1110 1110 0 1110 1110 1110 1110 1110 1110 5 5 1110 1110 1110 1110 1110 1110 1110 1110 1110
1110 1110 32 1110 1110 1110 6 1110 1110 1110 1110 1110 1110 1110 1110 1110 1110 1110 1110 1110 1110 1110 10 1110 0 1110 1110 1110 1110 1110 1110 1110 12 1110 1110 1110 1110 1110 1110 1110 10
1110 1110 1110 1110 1110 1110 1110 1110 1110 1110 19 1110 1110 1110 45 1110 1110 1110 6 1110 25 1110 1110 1110 1110 0 1110 1110 1110 1110 34 1110 1110 1110 1110 1110 1110 1110 26 1110 1110
1110 1110 1110 1110 1110 1110 1110 1110 1110 33 4 1110 1110 1110 1110 1110 1110 1110 1110 1110 1110 1110 1110 1110 1110 1110 0 1110 1110 1110 1110 1110 1110 1110 1110 21 1110 1110 24 14 1110
23 1110 1110 1110 1110 5 1110 1110 1110 1110 1110 1110 1110 1110 1110 1110 1110 1110 1110 1110 1110 1110 4 1110 1110 1110 1110 0 1110 1110 1110 1110 1110 10 1110 1110 1110 12 1110 1110 1110
1110 1110 7 3 1110 1110 1110 1110 1110 1110 1110 1110 1110 1110 10 1110 1110 1110 1110 1110 1110 1110 1110 1110 1110 1110 1110 1110 0 1110 1110 1110 1110 1110 1110 1110 1110 1110 1110 1110 1110
1110 1110 1110 1110 26 1110 1110 1110 1110 1110 1110 1110 1110 1110 1110 1110 1110 40 1110 1110 1110 1110 1110 1110 1110 1110 1110 1110 1110 0 24 20 1110 1110 1110 1110 1110 1110 1110 21 1110
1110 1110 1110 1110 1110 1110 1110 1110 1110 1110 1110 1110 1110 1110 1110 1110 1110 1110 28 1110 1110 1110 1110 5 1110 34 1110 1110 1110 24 0 9 1110 1110 1110 1110 1110 1110 1110 1110 1110
1110 1110 1110 1110 1110 1110 1110 1110 1110 1110 23 1110 1110 1110 1110 1110 1110 1110 24 1110 1110 1110 1110 5 1110 1110 1110 1110 1110 20 9 0 1110 1110 1110 1110 1110 1110 1110 17 1110
1110 1110 37 1110 1110 1110 1110 1110 1110 1110 1110 1110 1110 1110 51 13 1110 1110 1110 1110 1110 1110 1110 1110 12 1110 1110 1110 1110 1110 1110 1110 0 1110 1110 1110 1110 1110 1110 1110 9
1110 1110 1110 1110 1110 12 10 1110 1110 1110 1110 16 7 1110 1110 1110 1110 1110 1110 1110 1110 12 10 1110 1110 1110 1110 10 1110 1110 1110 1110 1110 0 1110 1110 1110 1110 1110 1110 1110
1110 1110 1110 1110 1110 15 1110 25 23 28 1110 9 1110 1110 1110 1110 1110 1110 1110 1110 1110 1110 1110 1110 1110 1110 1110 1110 1110 1110 1110 1110 1110 1110 0 24 1110 16 1110 1110 1110
1110 1110 1110 1110 1110 1110 1110 1110 1110 35 1110 17 1110 1110 1110 1110 1110 1110 1110 1110 1110 13 1110 1110 1110 1110 21 1110 1110 1110 1110 1110 1110 1110 24 0 5 1110 16 1110 1110
1110 1110 1110 1110 1110 1110 1110 1110 1110 1110 1110 1110 1110 2 1110 1110 1110 1110 1110 1110 1110 12 1110 1110 1110 1110 1110 1110 1110 1110 1110 1110 1110 1110 1110 5 0 1110 13 1110 1110
20 1110 1110 1110 1110 9 1110 17 1110 1110 1110 1110 1110 1110 1110 1110 1110 1110 1110 1110 1110 1110 1110 1110 1110 1110 1110 12 1110 1110 1110 1110 1110 1110 16 1110 1110 0 1110 1110 1110
1110 1110 1110 1110 1110 1110 1110 1110 1110 1110 25 1110 1110 12 1110 1110 7 1110 1110 1110 3 1110 1110 1110 1110 26 24 1110 1110 1110 1110 1110 1110 1110 1110 16 13 1110 0 1110 1110
1110 1110 1110 1110 32 1110 1110 1110 1110 28 14 1110 1110 1110 1110 1110 1110 1110 1110 1110 1110 1110 1110 1110 1110 1110 14 1110 1110 21 1110 17 1110 1110 1110 1110 1110 1110 1110 0 1110
21 1110 1110 1110 1110 1110 1110 1110 1110 1110 1110 1110 1110 1110 1110 6 1110 1110 1110 1110 1110 1110 17 1110 10 1110 1110 1110 1110 1110 1110 1110 9 1110 1110 1110 1110 1110 1110 1110 0
EOF
